NAME : X-n501-k38
COMMENT : Generate by LLYA 2025
TYPE : CVRP
DIMENSION : 501
EDGE_WEIGHT_TYPE : EUC_2D_ROUNDED
CAPACITY : 72
NODE_COORD_SECTION
1 500 500
2 676 170
3 357 750
4 281 264
5 652 393
6 794 449
7 414 188
8 2 928
9 897 843
10 6 69
11 117 288
12 244 379
13 182 151
14 960 777
15 857 230
16 300 949
17 923 496
18 408 705
19 13 132
20 244 871
21 514 124
22 755 91
23 26 541
24 686 537
25 363 390
26 952 350
27 395 818
28 28 573
29 765 657
30 484 70
31 968 670
32 58 328
33 816 479
34 997 424
35 716 812
36 383 404
37 762 489
38 148 423
39 449 740
40 794 895
41 843 944
42 24 355
43 843 51
44 913 714
45 86 267
46 530 919
47 285 442
48 963 371
49 654 259
50 877 467
51 513 252
52 778 662
53 609 698
54 799 114
55 206 591
56 173 182
57 508 548
58 506 34
59 690 468
60 417 664
61 990 36
62 725 90
63 173 560
64 908 913
65 379 947
66 276 602
67 349 126
68 640 489
69 188 621
70 727 650
71 886 298
72 951 688
73 806 813
74 401 109
75 428 694
76 593 559
77 911 260
78 382 363
79 359 754
80 879 140
81 466 798
82 310 760
83 412 811
84 252 107
85 525 79
86 432 265
87 780 138
88 591 296
89 158 861
90 935 409
91 973 708
92 138 177
93 549 995
94 902 957
95 5 936
96 337 429
97 526 63
98 269 105
99 241 527
100 493 507
101 964 403
102 249 394
103 691 242
104 433 665
105 161 747
106 151 459
107 661 44
108 586 342
109 877 215
110 615 512
111 430 708
112 823 498
113 521 274
114 255 769
115 122 21
116 679 850
117 348 11
118 958 479
119 748 995
120 898 141
121 741 253
122 769 679
123 867 0
124 935 720
125 134 577
126 620 738
127 87 736
128 571 360
129 294 441
130 94 58
131 2 11
132 774 416
133 526 87
134 509 896
135 382 16
136 581 41
137 774 707
138 880 715
139 947 463
140 987 762
141 131 711
142 590 595
143 337 110
144 854 434
145 42 355
146 5 798
147 228 511
148 635 978
149 116 374
150 599 184
151 524 754
152 338 771
153 208 29
154 297 472
155 461 592
156 461 690
157 786 702
158 41 424
159 123 638
160 738 808
161 774 736
162 53 89
163 409 429
164 496 61
165 515 996
166 385 262
167 617 929
168 451 995
169 804 289
170 337 769
171 643 926
172 887 696
173 942 190
174 831 112
175 579 474
176 454 577
177 32 873
178 950 397
179 973 302
180 963 372
181 10 599
182 72 819
183 652 456
184 252 920
185 352 759
186 435 52
187 112 300
188 961 438
189 801 467
190 651 551
191 30 530
192 325 452
193 110 462
194 239 221
195 16 262
196 817 718
197 336 609
198 291 342
199 714 407
200 503 301
201 358 345
202 912 104
203 924 816
204 989 538
205 292 269
206 889 779
207 542 472
208 412 825
209 772 588
210 988 821
211 675 524
212 666 763
213 290 997
214 482 491
215 88 100
216 17 36
217 39 819
218 661 621
219 475 737
220 687 775
221 167 851
222 373 704
223 815 472
224 837 391
225 890 588
226 984 611
227 12 168
228 228 929
229 58 430
230 976 730
231 888 702
232 376 801
233 31 143
234 616 337
235 160 136
236 369 204
237 712 641
238 679 185
239 265 717
240 166 559
241 404 695
242 190 689
243 797 290
244 482 533
245 503 59
246 982 120
247 106 882
248 414 756
249 574 497
250 829 22
251 97 787
252 142 83
253 625 83
254 96 758
255 206 72
256 1 810
257 921 796
258 202 377
259 862 883
260 325 220
261 254 423
262 996 702
263 713 90
264 365 735
265 623 264
266 305 391
267 354 337
268 832 151
269 172 651
270 989 874
271 523 776
272 290 878
273 795 479
274 684 14
275 58 181
276 796 27
277 61 111
278 618 815
279 173 509
280 427 702
281 990 303
282 186 718
283 473 755
284 634 900
285 951 111
286 886 1
287 741 890
288 274 802
289 183 988
290 51 169
291 452 32
292 941 492
293 831 399
294 198 776
295 198 705
296 461 309
297 347 742
298 478 759
299 582 319
300 845 899
301 245 201
302 657 126
303 763 814
304 199 870
305 124 753
306 648 766
307 351 384
308 218 838
309 323 777
310 652 786
311 811 897
312 350 348
313 793 92
314 820 142
315 11 835
316 132 999
317 769 278
318 138 701
319 817 920
320 463 270
321 553 153
322 509 418
323 915 71
324 583 38
325 62 355
326 459 980
327 969 337
328 128 953
329 238 881
330 97 449
331 322 81
332 679 941
333 459 283
334 720 857
335 736 812
336 249 234
337 77 710
338 559 513
339 799 382
340 594 257
341 431 227
342 103 681
343 807 313
344 94 201
345 43 431
346 429 779
347 313 676
348 529 236
349 933 70
350 83 1000
351 693 549
352 450 734
353 704 254
354 639 462
355 334 485
356 705 74
357 609 492
358 843 21
359 433 1
360 176 102
361 32 67
362 555 992
363 745 834
364 771 816
365 672 169
366 86 972
367 244 687
368 948 609
369 141 69
370 927 239
371 882 104
372 168 42
373 249 131
374 865 423
375 431 42
376 563 490
377 707 994
378 265 208
379 440 26
380 303 686
381 57 887
382 295 637
383 493 454
384 227 811
385 173 225
386 680 630
387 680 723
388 119 101
389 65 530
390 143 799
391 277 337
392 727 263
393 14 891
394 41 947
395 512 83
396 796 987
397 18 438
398 281 139
399 275 312
400 925 222
401 69 945
402 75 570
403 541 137
404 500 534
405 173 720
406 262 229
407 916 3
408 578 36
409 612 507
410 196 1000
411 422 665
412 918 636
413 699 477
414 181 789
415 500 314
416 395 448
417 158 496
418 767 75
419 592 24
420 414 353
421 89 799
422 846 141
423 298 349
424 243 364
425 815 4
426 208 511
427 664 943
428 855 933
429 753 775
430 107 716
431 83 104
432 578 194
433 305 121
434 555 407
435 651 543
436 456 291
437 977 289
438 508 705
439 569 827
440 435 34
441 726 712
442 328 649
443 648 24
444 555 354
445 538 221
446 631 918
447 683 33
448 289 300
449 914 339
450 714 411
451 928 788
452 965 574
453 831 337
454 396 328
455 49 221
456 273 307
457 672 804
458 307 100
459 905 294
460 25 436
461 172 249
462 359 261
463 863 98
464 424 580
465 218 339
466 314 24
467 657 694
468 208 125
469 926 162
470 924 851
471 676 172
472 127 287
473 984 320
474 79 14
475 923 819
476 334 790
477 818 8
478 558 36
479 159 781
480 962 382
481 690 971
482 681 943
483 310 35
484 490 866
485 887 333
486 924 629
487 226 172
488 206 669
489 488 834
490 917 517
491 810 556
492 109 838
493 653 549
494 63 956
495 287 601
496 290 729
497 716 781
498 49 688
499 491 803
500 690 573
501 929 332
DEMAND_SECTION
1 0
2 7
3 6
4 9
5 7
6 2
7 7
8 3
9 1
10 7
11 3
12 3
13 7
14 4
15 2
16 5
17 9
18 5
19 8
20 4
21 9
22 10
23 6
24 4
25 3
26 5
27 1
28 3
29 9
30 8
31 8
32 1
33 7
34 6
35 5
36 6
37 1
38 9
39 9
40 8
41 7
42 7
43 4
44 6
45 8
46 8
47 2
48 2
49 5
50 8
51 10
52 5
53 9
54 6
55 6
56 8
57 1
58 6
59 2
60 10
61 6
62 7
63 3
64 4
65 4
66 1
67 8
68 1
69 4
70 4
71 9
72 7
73 5
74 1
75 7
76 9
77 7
78 4
79 6
80 2
81 5
82 3
83 2
84 8
85 8
86 8
87 2
88 7
89 5
90 10
91 3
92 6
93 6
94 2
95 8
96 6
97 1
98 7
99 7
100 1
101 1
102 4
103 1
104 8
105 1
106 5
107 3
108 8
109 3
110 3
111 7
112 10
113 4
114 9
115 2
116 8
117 10
118 5
119 10
120 7
121 6
122 10
123 5
124 9
125 3
126 3
127 6
128 2
129 1
130 7
131 7
132 1
133 2
134 5
135 5
136 2
137 8
138 2
139 2
140 1
141 7
142 7
143 9
144 9
145 10
146 5
147 4
148 10
149 3
150 8
151 4
152 6
153 8
154 5
155 5
156 3
157 4
158 1
159 5
160 5
161 3
162 5
163 5
164 1
165 3
166 8
167 10
168 2
169 7
170 7
171 2
172 3
173 5
174 6
175 10
176 5
177 1
178 5
179 5
180 9
181 2
182 8
183 3
184 1
185 6
186 8
187 2
188 9
189 9
190 2
191 1
192 6
193 10
194 3
195 6
196 3
197 8
198 5
199 7
200 6
201 7
202 4
203 6
204 6
205 2
206 3
207 2
208 8
209 9
210 3
211 10
212 3
213 7
214 5
215 2
216 4
217 6
218 4
219 4
220 8
221 10
222 4
223 7
224 1
225 9
226 9
227 8
228 3
229 5
230 4
231 7
232 7
233 10
234 8
235 4
236 8
237 7
238 8
239 10
240 4
241 4
242 2
243 7
244 1
245 1
246 7
247 2
248 8
249 1
250 10
251 6
252 3
253 9
254 2
255 5
256 7
257 3
258 10
259 5
260 8
261 4
262 8
263 5
264 6
265 10
266 8
267 10
268 2
269 9
270 10
271 4
272 4
273 7
274 5
275 6
276 10
277 8
278 4
279 10
280 2
281 3
282 4
283 9
284 8
285 5
286 6
287 6
288 2
289 7
290 8
291 10
292 10
293 6
294 6
295 2
296 6
297 2
298 3
299 4
300 2
301 6
302 9
303 1
304 7
305 3
306 3
307 2
308 7
309 7
310 8
311 8
312 5
313 10
314 5
315 2
316 4
317 7
318 7
319 8
320 7
321 6
322 4
323 5
324 4
325 8
326 4
327 7
328 1
329 10
330 10
331 3
332 1
333 2
334 5
335 4
336 1
337 3
338 2
339 5
340 10
341 8
342 9
343 5
344 2
345 10
346 9
347 5
348 1
349 1
350 1
351 1
352 4
353 6
354 4
355 2
356 9
357 10
358 7
359 7
360 3
361 2
362 8
363 2
364 8
365 4
366 9
367 8
368 9
369 9
370 4
371 4
372 5
373 1
374 7
375 6
376 5
377 9
378 5
379 2
380 4
381 1
382 1
383 3
384 9
385 9
386 6
387 2
388 3
389 1
390 4
391 10
392 5
393 1
394 6
395 3
396 10
397 6
398 5
399 5
400 7
401 5
402 4
403 3
404 4
405 8
406 6
407 3
408 4
409 7
410 1
411 10
412 5
413 7
414 4
415 5
416 8
417 10
418 7
419 9
420 4
421 10
422 1
423 9
424 5
425 5
426 6
427 1
428 4
429 8
430 9
431 5
432 9
433 9
434 4
435 5
436 9
437 6
438 9
439 1
440 3
441 7
442 5
443 8
444 8
445 4
446 2
447 4
448 1
449 3
450 4
451 2
452 10
453 8
454 1
455 1
456 8
457 1
458 7
459 4
460 4
461 1
462 4
463 4
464 10
465 9
466 3
467 6
468 6
469 7
470 8
471 5
472 2
473 3
474 7
475 3
476 5
477 1
478 2
479 7
480 10
481 9
482 5
483 5
484 7
485 1
486 5
487 5
488 4
489 5
490 4
491 3
492 2
493 8
494 7
495 1
496 8
497 4
498 8
499 5
500 3
501 4
DEPOT_SECTION
1
-1
EOF
